p cnf 50 41
9 -20 -21 0
-9 10 -19 0
10 11 22 0
12 -19 20 0
12 13 -19 0
10 -13 14 0
15 -19 -20 0
16 21 -22 0
-15 -16 17 0
-14 17 18 0
32 -43 -44 0
-32 33 -42 0
33 34 45 0
35 -42 43 0
35 36 -42 0
33 -36 37 0
38 -42 -43 0
39 44 -45 0
-38 -39 40 0
-37 40 41 0
-5 -28 -47 0
-5 28 47 0
5 -28 47 0
5 28 -47 0
-6 -29 -48 0
-6 29 48 0
6 -29 48 0
6 29 -48 0
-8 -31 -50 0
-8 31 50 0
8 -31 50 0
8 31 -50 0
4 0
-18 0
23 0
-27 0
-41 0
46 0
-47 0
-48 0
-50 0

